
Log started (V11.0.0) Wed Apr 16 16:17:22 2008

Tried aggregator 1 time.
Reduced MIP has 210 rows, 2001 columns, and 4010 nonzeros.
Presolve time =    0.02 sec.
Clique table members: 200.
MIP emphasis: balance optimality and feasibility.
MIP search method: dynamic search.
Parallel mode: none, using 1 thread.
Root relaxation solution time =    0.03 sec.

        Nodes                                         Cuts/
   Node  Left     Objective  IInf  Best Integer     Best Node    ItCnt     Gap

*     0+    0                        10958.0000      358.7383      306   96.73%
*     0+    0                          378.0000      358.7383      306    5.10%
      0     0      359.0964    26      378.0000     Fract: 10      329    5.00%
*     0+    0                          377.0000      359.0964      329    4.75%
      0     0      359.1823    30      377.0000       Cuts: 5      346    4.73%
*     0+    0                          366.0000      359.1823      346    1.86%
      0     0      359.2182    33      366.0000    MIRcuts: 3      356    1.85%
      0     0      359.2447    39      366.0000       Cuts: 4      363    1.85%
      0     0      359.2880    39      366.0000     Covers: 4      370    1.83%
*     0+    0                          364.0000      359.2880      370    1.29%
      0     0      359.3588    46      364.0000       Cuts: 6      380    1.28%
      0     0      359.3859    56      364.0000       Cuts: 9      396    1.27%
      0     0      359.3904    56      364.0000       Cuts: 3      405    1.27%
      0     0      359.3984    60      364.0000    MIRcuts: 1      413    1.26%
*     0+    0                          363.0000      359.3984      413    0.99%

Repeating presolve.
Tried aggregator 1 time.
MIP Presolve eliminated 3 rows and 1134 columns.
Aggregator did 17 substitutions.
Reduced MIP has 190 rows, 850 columns, and 1708 nonzeros.
Tried aggregator 1 time.
Represolve time =    0.03 sec.
Clique table members: 180.
MIP emphasis: balance optimality and feasibility.
MIP search method: dynamic search.
Parallel mode: none, using 1 thread.
Root relaxation solution time =    0.03 sec.

        Nodes                                         Cuts/
   Node  Left     Objective  IInf  Best Integer     Best Node    ItCnt     Gap

      0     0      360.0000    36      363.0000      360.0000      218    0.83%
      0     2      360.0000    36      363.0000      360.0000      218    0.83%
    100    83      361.0000    24      363.0000      360.0000     3059    0.83%
    200   153      362.0000    21      363.0000      360.0000     6270    0.83%
    300   233      361.0000    27      363.0000      360.0000     8088    0.83%
    400   304      360.0000    20      363.0000      360.0000    11228    0.83%
    500   367      362.0000    22      363.0000      360.0000    15752    0.83%
    600   343      362.0000    15      363.0000      360.0000    19551    0.83%
    700   316      362.0000    22      363.0000      360.0000    25304    0.83%
    800   315      361.0000    61      363.0000      360.0000    29148    0.83%
    900   312    infeasible            363.0000      360.0000    32270    0.83%
   1000   336      362.0000    24      363.0000      360.0000    34821    0.83%
Elapsed time =   8.34 sec. (tree size =  0.16 MB, solutions = 6)
   1100   404      362.0000    22      363.0000      360.0000    39286    0.83%
   1200   490      361.0000    27      363.0000      360.0000    42367    0.83%
*  1214+  320                          362.0000      360.0000    42901    0.55%
   1300   393      360.0000    33      362.0000      360.0000    47231    0.55%
   1400   469      361.0000    32      362.0000      360.0000    50348    0.55%
   1500   554      361.0000    24      362.0000      360.0000    54659    0.55%
   1600   636      360.0000    50      362.0000      360.0000    58298    0.55%
   1700   718      361.0000    39      362.0000      360.0000    63835    0.55%
   1800   794      360.0000    31      362.0000      360.0000    68408    0.55%
   1900   875      361.0000    27      362.0000      360.0000    73413    0.55%
   2000   953      361.0000    22      362.0000      360.0000    77655    0.55%
Elapsed time =  14.86 sec. (tree size =  0.46 MB, solutions = 7)
   2100  1028      361.0000    50      362.0000      360.0000    82583    0.55%
   2200  1113      361.0000    50      362.0000      360.0000    87009    0.55%
   2300  1198      361.0000    29      362.0000      360.0000    92476    0.55%
   2400  1282      361.0000    39      362.0000      360.0000    97628    0.55%
   2500  1374      361.0000    58      362.0000      360.0000   102202    0.55%
   2600  1456      361.0000    30      362.0000      360.0000   106885    0.55%
   2700  1537      361.0000    29      362.0000      360.0000   113371    0.55%
   2800  1617      361.0000    26      362.0000      360.0000   118267    0.55%
   2900  1698      361.0000    34      362.0000      360.0000   124592    0.55%
   3000  1783      361.0000    27      362.0000      360.0000   129599    0.55%
Elapsed time =  23.50 sec. (tree size =  0.89 MB, solutions = 7)
   3100  1867      361.0000    53      362.0000      360.0000   134352    0.55%
   3200  1949      360.0494    70      362.0000      360.0000   140672    0.55%
   3300  2039      361.0000    45      362.0000      360.0000   145435    0.55%
   3400  2123      361.0000    44      362.0000      360.0000   151115    0.55%
   3500  2204      361.0000    25      362.0000      360.0000   156187    0.55%
   3600  2290      360.0000    84      362.0000      360.0000   162605    0.55%
   3700  2370      361.0000    28      362.0000      360.0000   168037    0.55%
   3800  2449      361.0000    47      362.0000      360.0000   174702    0.55%
   3900  2531    infeasible            362.0000      360.0000   179527    0.55%
   4000  2608      360.0000    83      362.0000      360.0000   184415    0.55%
Elapsed time =  32.36 sec. (tree size =  1.34 MB, solutions = 7)
   4100  2697      361.0000    43      362.0000      360.0000   190443    0.55%
   4200  2787      361.0000    30      362.0000      360.0000   195918    0.55%
   4300  2861      361.0000    44      362.0000      360.0000   202780    0.55%
   4400  2941      361.0000    39      362.0000      360.0000   208016    0.55%
   4500  3018      361.0000    22      362.0000      360.0000   211675    0.55%
   4600  3095      361.0000    41      362.0000      360.0000   216800    0.55%
   4700  3172      361.0000    31      362.0000      360.0000   222045    0.55%
   4800  3263      361.0000    20      362.0000      360.0000   226448    0.55%
   4900  3327      361.0000    33      362.0000      360.0000   233325    0.55%
   5000  3404      360.0000    33      362.0000      360.0000   238295    0.55%
Elapsed time =  40.95 sec. (tree size =  1.75 MB, solutions = 7)
   5100  3489      361.0000    30      362.0000      360.0000   243402    0.55%
*  5140   176      integral     0      361.0000      360.0000   246580    0.28%
   5200   146    infeasible            361.0000      360.0000   264052    0.28%
   5300   138    infeasible            361.0000      360.0000   288088    0.28%
   5400    48    infeasible            361.0000      360.0000   325037    0.28%

Cover cuts applied:  569
Mixed integer rounding cuts applied:  23
Gomory fractional cuts applied:  4

Solution pool: 8 solutions saved.

MIP - Integer optimal solution:  Objective = 3.6100000000e+002
Solution time =   62.38 sec.  Iterations = 343915  Nodes = 5457


Incumbent solution
Variable Name           Solution Value
Cmax                        361.000000
X_1_2                         1.000000
X_2_10                        1.000000
X_3_10                        1.000000
X_4_1                         1.000000
X_5_2                         1.000000
X_6_8                         1.000000
X_7_2                         1.000000
X_8_10                        1.000000
X_9_7                         1.000000
X_10_4                        0.000000
X_10_7                        1.000000
X_11_5                        1.000000
X_12_8                        1.000000
X_13_3                        1.000000
X_14_2                        1.000000
X_15_4                        1.000000
X_15_6                        0.000000
X_16_3                        1.000000
X_17_3                        1.000000
X_18_10                       1.000000
X_19_3                        1.000000
X_20_4                        1.000000
X_21_9                        1.000000
X_22_1                        1.000000
X_23_10                       1.000000
X_24_4                        1.000000
X_25_10                       1.000000
X_26_6                        1.000000
X_27_4                        1.000000
X_27_8                        0.000000
X_28_8                        1.000000
X_29_2                        1.000000
X_30_9                        1.000000
X_31_7                        1.000000
X_32_10                       1.000000
X_33_10                       1.000000
X_34_3                        1.000000
X_35_5                        1.000000
X_36_9                        1.000000
X_37_5                        1.000000
X_38_6                        1.000000
X_39_10                       1.000000
X_40_1                        1.000000
X_41_8                        1.000000
X_42_4                        1.000000
X_43_1                        1.000000
X_44_5                        1.000000
X_45_7                        1.000000
X_46_8                        1.000000
X_47_2                        1.000000
X_48_4                        1.000000
X_49_6                        1.000000
X_50_9                        1.000000
X_51_3                        1.000000
X_52_2                        1.000000
X_53_10                       1.000000
X_54_6                        1.000000
X_55_8                        1.000000
X_56_5                        1.000000
X_57_2                        1.000000
X_57_4                        0.000000
X_58_8                        1.000000
X_59_1                        1.000000
X_60_9                        1.000000
X_61_6                        1.000000
X_62_7                        1.000000
X_63_7                        1.000000
X_64_1                        1.000000
X_65_2                        1.000000
X_66_1                        1.000000
X_67_1                        1.000000
X_68_10                       1.000000
X_69_8                        1.000000
X_70_6                        1.000000
X_71_9                        1.000000
X_72_3                        1.000000
X_73_5                        1.000000
X_74_2                        1.000000
X_75_5                        1.000000
X_76_3                        1.000000
X_77_3                        1.000000
X_78_4                        1.000000
X_79_4                        1.000000
X_80_1                        1.000000
X_81_1                        1.000000
X_81_4                        0.000000
X_82_7                        1.000000
X_83_3                        1.000000
X_84_2                        1.000000
X_85_9                        1.000000
X_86_8                        1.000000
X_87_4                        1.000000
X_88_5                        1.000000
X_89_1                        1.000000
X_90_6                        1.000000
X_91_4                        1.000000
X_92_10                       1.000000
X_93_7                        1.000000
X_94_2                        1.000000
X_95_9                        1.000000
X_96_5                        1.000000
X_97_10                       1.000000
X_98_3                        1.000000
X_99_9                        1.000000
X_100_9                       1.000000
X_101_6                       1.000000
X_102_7                       1.000000
X_103_7                       1.000000
X_104_3                       1.000000
X_105_9                       1.000000
X_106_3                       1.000000
X_107_3                       1.000000
X_108_9                       1.000000
X_109_4                       1.000000
X_110_10                      1.000000
X_111_6                       1.000000
X_112_5                       1.000000
X_113_6                       1.000000
X_114_8                       1.000000
X_115_8                       1.000000
X_116_4                       1.000000
X_117_1                       1.000000
X_118_2                       1.000000
X_119_3                       1.000000
X_120_1                       1.000000
X_121_4                       1.000000
X_122_3                       1.000000
X_123_8                       1.000000
X_124_8                       1.000000
X_125_5                       1.000000
X_126_6                       1.000000
X_127_5                       1.000000
X_128_5                       1.000000
X_129_10                      1.000000
X_130_3                       1.000000
X_131_5                       1.000000
X_132_7                       1.000000
X_133_1                       1.000000
X_134_1                       0.000000
X_134_8                       1.000000
X_135_7                       1.000000
X_136_8                       1.000000
X_137_6                       1.000000
X_138_8                       1.000000
X_139_10                      1.000000
X_140_7                       1.000000
X_141_1                       1.000000
X_142_5                       1.000000
X_143_4                       1.000000
X_144_9                       1.000000
X_145_2                       1.000000
X_146_5                       1.000000
X_147_8                       1.000000
X_148_9                       1.000000
X_149_7                       1.000000
X_150_5                       1.000000
X_151_10                      1.000000
X_152_7                       1.000000
X_153_10                      1.000000
X_154_7                       1.000000
X_155_5                       1.000000
X_156_3                       1.000000
X_157_4                       1.000000
X_158_1                       1.000000
X_159_5                       1.000000
X_160_9                       1.000000
X_161_5                       1.000000
X_162_5                       1.000000
X_163_8                       1.000000
X_164_8                       1.000000
X_165_2                       1.000000
X_166_7                       1.000000
X_167_1                       1.000000
X_168_6                       1.000000
X_169_7                       1.000000
X_170_1                       1.000000
X_171_6                       1.000000
X_172_3                       1.000000
X_173_4                       1.000000
X_174_1                       1.000000
X_175_3                       1.000000
X_176_6                       1.000000
X_177_9                       1.000000
X_178_7                       1.000000
X_179_2                       1.000000
X_180_2                       0.000000
X_180_6                       1.000000
X_181_8                       1.000000
X_182_10                      1.000000
X_183_6                       1.000000
X_184_6                       1.000000
X_185_6                       1.000000
X_186_5                       1.000000
X_187_6                       1.000000
X_188_5                       1.000000
X_189_5                       1.000000
X_190_4                       1.000000
X_191_9                       1.000000
X_192_1                       1.000000
X_193_9                       1.000000
X_194_4                       1.000000
X_195_8                       1.000000
X_196_10                      1.000000
X_197_2                       1.000000
X_198_9                       1.000000
X_199_7                       1.000000
X_200_9                       1.000000
All other variables in the range 1-2001 are 0.
